 &control
    prefix=''
    outdir='temp'
    pseudo_dir = '.',
 /
 &system
    ibrav=  2, celldm(1) =6.824, nat=  1, ntyp=  1,
    ecutwfc =30.0,
    occupations='smearing', smearing='mp', degauss=0.06
 /
 &electrons
 /
ATOMIC_SPECIES
 Cu  63.546 Cu.UPF
ATOMIC_POSITIONS
 Cu 0.00 0.00 0.00
K_POINTS automatic
 8 8 8 0 0 0
